n = 36; % Number of white cells
m = 24; % Number of hints

v = [
    % rows
    6, 3,
    21, 5,
    16,
    7, 8,
    35,
    17, 29,
    16, 24,
    % cols
    11,
    23,
    10,
    30,
    15,
    7, 17,
    27,
    12, 12,
    7, 16
];

% Sets of cells for each hint
% It is an array of sets that indicates which cells are involved in each hint.
I = [
    % horizontal sums
    {1, 2, 3}, % sum 6
    {4, 5}, % sum 3
    {6, 7, 8, 9}, % sum 21
    {10, 11}, % sum 5
    {12, 13, 14, 15, 16}, % sum 16
    {17, 18}, % sum 7
    {19, 20}, % sum 8
    {21, 22, 23, 24, 25}, % sum 35
    {26, 27}, % sum 17
    {28, 29, 30, 31}, % sum 29
    {32, 33}, % sum 16
    {34, 35, 36}, % sum 24

    % vertical sums
    {1, 6}, % sum 11
    {21, 26, 32}, % sum 23
    {2, 7}, % sum 10
    {17, 22, 27, 33}, % sum 30
    {3, 8, 12, 18, 23}, % sum 15
    {9, 13}, % sum 7
    {24, 28}, % sum 17
    {14, 19, 25, 29, 34}, % sum 27
    {4, 10, 15, 20}, % sum 12
    {30, 35}, % sum 12
    {5, 11, 16}, % sum 7
    {31, 36} % sum 16
];
